pair_style tersoff
pair_coeff * * WSe.tersoff W Se

neighbor 2.0 nsq
