units metal
dimension 3
boundary p p f
atom_style atomic
atom_modify map array sort 0 0
box tilt large
